
Log started (V11.0.0) Wed Apr 16 12:10:46 2008

Tried aggregator 1 time.
Reduced MIP has 150 rows, 5001 columns, and 10050 nonzeros.
Presolve time =    0.05 sec.
Clique table members: 100.
MIP emphasis: balance optimality and feasibility.
MIP search method: dynamic search.
Parallel mode: none, using 1 thread.
Root relaxation solution time =    0.13 sec.

        Nodes                                         Cuts/
   Node  Left     Objective  IInf  Best Integer     Best Node    ItCnt     Gap

*     0+    0                         5512.0000       23.2634      814   99.58%
*     0+    0                           42.0000       23.2634      814   44.61%
      0     0       24.0000    71       42.0000      Fract: 6      823   42.86%
*     0+    0                           34.0000       24.0000      823   29.41%
      0     0       24.0000    72       34.0000   Impl Bds: 1      825   29.41%
*     0+    0                           33.0000       24.0000      825   27.27%
*     0+    0                           32.0000       24.0000      825   25.00%
*     0+    0                           31.0000       24.0000      825   22.58%

Repeating presolve.
Tried aggregator 1 time.
MIP Presolve eliminated 0 rows and 3844 columns.
MIP Presolve modified 194 coefficients.
Reduced MIP has 150 rows, 1157 columns, and 2362 nonzeros.
Tried aggregator 1 time.
Represolve time =    0.05 sec.
Clique table members: 350.
MIP emphasis: balance optimality and feasibility.
MIP search method: dynamic search.
Parallel mode: none, using 1 thread.
Root relaxation solution time =    0.03 sec.

        Nodes                                         Cuts/
   Node  Left     Objective  IInf  Best Integer     Best Node    ItCnt     Gap

      0     0       24.0000    89       31.0000       24.0000      397   22.58%
      0     2       24.0000    89       31.0000       24.0000      397   22.58%
    100    97       26.0000    57       31.0000       24.0000     1415   22.58%
    200   184       28.0000    63       31.0000       24.0000     3203   22.58%
    300   263       25.0000    81       31.0000       24.0000     5101   22.58%
    400   353       26.0089    95       31.0000       24.0000     7149   22.58%
    500   440        cutoff             31.0000       24.0000     8697   22.58%
*   520+  409                           30.0000       24.0000     9637   20.00%
    600   488       29.0000    38       30.0000       24.0000    10530   20.00%

Clique cuts applied:  16
Cover cuts applied:  57
Flow cuts applied:  1
Mixed integer rounding cuts applied:  15
Zero-half cuts applied:  1

Solution pool: 8 solutions saved.

MIP - Integer optimal solution:  Objective = 2.9000000000e+001
Solution time =    3.88 sec.  Iterations = 12444  Nodes = 631 (516)


Incumbent solution
Variable Name           Solution Value
Cmax                         29.000000
X_1_2                         1.000000
X_2_14                        1.000000
X_3_44                        1.000000
X_4_3                         1.000000
X_5_6                         1.000000
X_6_32                        1.000000
X_7_48                        1.000000
X_8_36                        1.000000
X_9_15                        1.000000
X_10_38                       1.000000
X_11_19                       1.000000
X_12_20                       1.000000
X_13_5                        1.000000
X_14_8                        1.000000
X_15_2                        1.000000
X_16_4                        1.000000
X_17_11                       1.000000
X_18_41                       1.000000
X_19_46                       1.000000
X_20_21                       1.000000
X_21_9                        1.000000
X_22_17                       1.000000
X_23_49                       1.000000
X_24_23                       1.000000
X_25_27                       1.000000
X_26_47                       1.000000
X_27_48                       1.000000
X_28_12                       1.000000
X_29_42                       1.000000
X_30_18                       1.000000
X_31_29                       1.000000
X_32_27                       1.000000
X_33_40                       1.000000
X_34_37                       1.000000
X_35_19                       1.000000
X_36_25                       1.000000
X_37_15                       1.000000
X_38_8                        1.000000
X_39_24                       1.000000
X_40_26                       1.000000
X_41_10                       1.000000
X_42_34                       1.000000
X_43_38                       1.000000
X_44_7                        1.000000
X_45_20                       1.000000
X_46_22                       1.000000
X_47_12                       1.000000
X_48_39                       1.000000
X_49_40                       1.000000
X_50_13                       1.000000
X_51_14                       1.000000
X_52_3                        1.000000
X_53_31                       1.000000
X_54_50                       1.000000
X_55_22                       1.000000
X_56_4                        1.000000
X_57_7                        1.000000
X_58_28                       1.000000
X_59_37                       1.000000
X_60_6                        1.000000
X_61_43                       1.000000
X_62_16                       1.000000
X_63_11                       1.000000
X_64_50                       1.000000
X_65_41                       1.000000
X_66_18                       1.000000
X_67_31                       1.000000
X_68_46                       1.000000
X_69_39                       1.000000
X_70_1                        1.000000
X_71_30                       1.000000
X_72_44                       1.000000
X_73_23                       1.000000
X_74_10                       1.000000
X_75_36                       1.000000
X_76_1                        1.000000
X_77_33                       1.000000
X_78_25                       1.000000
X_79_34                       1.000000
X_80_16                       1.000000
X_81_26                       1.000000
X_82_21                       1.000000
X_83_5                        1.000000
X_84_24                       1.000000
X_85_35                       1.000000
X_86_45                       1.000000
X_87_30                       1.000000
X_88_29                       1.000000
X_89_17                       1.000000
X_90_33                       1.000000
X_91_13                       1.000000
X_92_35                       1.000000
X_93_9                        1.000000
X_94_49                       1.000000
X_95_32                       1.000000
X_96_47                       1.000000
X_97_45                       1.000000
X_98_43                       1.000000
X_99_42                       1.000000
X_100_28                      1.000000
All other variables in the range 1-5001 are 0.
